p cnf 77 245
-3 -1 0
-3 -2 0
1 2 3 0
5 3 0
5 4 0
-3 -4 -5 0
-7 -5 0
-7 6 0
5 -6 7 0
-7 6 -8 0
7 -6 -8 0
-7 -6 8 0
7 6 8 0
-10 6 0
-10 -9 0
-6 9 10 0
13 11 0
13 12 0
-11 -12 -13 0
14 -10 0
14 13 0
10 -13 -14 0
-15 8 0
-15 -14 0
-8 14 15 0
16 -6 -17 0
-16 6 -17 0
16 6 17 0
-16 -6 17 0
-18 -15 0
-18 -17 0
15 17 18 0
-19 6 0
-19 -9 0
-6 9 19 0
20 -21 -22 0
-20 21 -22 0
20 21 22 0
-20 -21 22 0
23 2 0
23 22 0
-2 -22 -23 0
23 22 -24 0
-23 -22 -24 0
23 -22 24 0
-23 22 24 0
-25 19 0
-25 24 0
-19 -24 25 0
26 -16 0
26 13 0
16 -13 -26 0
-27 -26 0
-27 3 0
26 -3 27 0
29 26 0
29 5 0
-26 -5 -29 0
-11 3 -30 0
11 -3 -30 0
-11 -3 30 0
11 3 30 0
-31 29 0
-31 30 0
-29 -30 31 0
28 31 -32 0
-28 -31 -32 0
28 -31 32 0
-28 31 32 0
33 -27 0
33 -32 0
27 32 -33 0
35 -29 0
35 7 0
29 -7 -35 0
36 34 0
36 -35 0
-34 35 -36 0
33 36 -37 0
-33 -36 -37 0
33 -36 37 0
-33 36 37 0
38 -25 0
38 -37 0
25 37 -38 0
18 38 -39 0
-18 -38 -39 0
18 -38 39 0
-18 38 39 0
-11 9 -40 0
11 -9 -40 0
-11 -9 40 0
11 9 40 0
23 21 -41 0
-23 -21 -41 0
23 -21 41 0
-23 21 41 0
-40 41 -42 0
40 -41 -42 0
-40 -41 42 0
40 41 42 0
43 4 0
43 -30 0
-4 30 -43 0
22 44 -45 0
-22 -44 -45 0
22 -44 45 0
-22 44 45 0
-46 43 0
-46 -45 0
-43 45 46 0
-47 -42 0
-47 46 0
42 -46 47 0
-49 -48 0
-49 12 0
48 -12 49 0
50 49 0
50 -12 0
-49 12 -50 0
51 -28 0
51 -10 0
28 10 -51 0
-13 -52 0
13 -52 0
51 52 -53 0
-51 -52 -53 0
51 -52 53 0
-51 52 53 0
54 50 0
54 53 0
-50 -53 -54 0
-55 47 0
-55 54 0
-47 -54 55 0
-56 39 0
-56 55 0
-39 -55 56 0
57 11 0
57 -40 0
-11 40 -57 0
-29 -40 -58 0
29 40 -58 0
-29 40 58 0
29 -40 58 0
-59 20 0
-59 -22 0
-20 22 59 0
-16 48 -60 0
16 -48 -60 0
-16 -48 60 0
16 48 60 0
-61 59 0
-61 -60 0
-59 60 61 0
-10 -7 -62 0
10 7 -62 0
-10 7 62 0
10 -7 62 0
63 62 0
63 -35 0
-62 35 -63 0
-64 14 0
-64 63 0
-14 -63 64 0
30 -65 0
-30 -65 0
66 64 0
66 -65 0
-64 65 -66 0
67 -61 0
67 -66 0
61 66 -67 0
68 -40 0
68 -4 0
40 4 -68 0
-69 -68 0
-69 9 0
68 -9 69 0
70 -69 0
70 69 0
71 70 0
71 63 0
-70 -63 -71 0
-72 -11 0
-72 51 0
11 -51 72 0
73 -71 0
73 72 0
71 -72 -73 0
-74 -67 0
-74 73 0
67 -73 74 0
-75 -58 0
-75 74 0
58 -74 75 0
76 -57 0
76 -75 0
57 75 -76 0
-56 76 -77 0
56 -76 -77 0
-56 -76 77 0
56 76 77 0
-14 -46 71 0
9 75 74 48 0
64 -58 -42 2 0
-39 1 0
-32 -40 5 0
53 -46 20 -8 -56 0
-56 -50 26 -74 52 -16 0
-30 -38 33 0
-32 -25 42 0
-16 53 -51 61 67 0
59 71 -38 48 25 54 0
34 17 -12 -39 -24 0
10 -33 0
-71 38 -8 61 0
65 -11 27 -69 -51 0
-43 -30 77 0
-63 -71 19 0
63 -66 -59 -42 -27 0
64 42 -16 -7 8 0
38 62 41 -69 0
8 1 -57 -21 -75 19 0
-59 41 -57 -49 0
36 17 0
69 -39 -59 0
-19 -28 -27 53 26 -18 0
-45 -56 -29 0
47 59 6 15 14 0
67 25 -2 72 -73 38 0
46 -26 -60 72 0
3 -57 23 0
8 47 -27 -34 0
-42 -6 15 -2 0
5 -55 4 -7 2 -69 0
57 -13 -28 0
72 32 -14 -24 3 0
67 -30 0
13 -35 0
-51 -22 -20 24 66 0
49 -39 -40 0
-18 -57 0
-59 19 62 -15 -17 0
77 0
